27537 10993 9996 10568 10254 10574 10590 10758 10901 10901 10901 10901 10901 10901 10901 10901 10901 10901 10901 10901 10901 10901 10901 10901 10901 10901 10901 10901 10901 10987 10987 10901 11342 11342 11342 11333 11289 11289 11289 11289 11289 11289 11289 11289 11289 11289 11289 11289 11289 11289 11289 11289 11289 11289 11289 11289 11289 11289 11289 11289 11289 11289 11289 11289 11289 11289 11289 11289 11289 11289 11289 11289 11289 11289 11289 11289 11289 11289 11289 11289 11289 11289 11289 11289 11289 11289 11289 11289 11289 11289 11289 11289 11289 11289 11289 11289 11289 11289 11289 11289 11289 11289 11289 11289 11289 11289 11289 11289 11289 11289 11289 11289 11289 11289 11289 11289 11289 11289 11289 11289 11289 11289 11289 11289 11289 11289 11289 11289 11289 11289 11289 11289 11289 11289 11289 11289 11289 11289 11289 11289 11289 11289 11289 11289 11289 11289 11289 11289 11289 11289 11289 11289 11289 11289 11289 11289 11289 11289 11289 11289 11289 11289 11289 11289 11289 11289 11289 11289 11289 11289 11289 11289 11289 11289 11289 11289 11289 11289 11289 11289 11289 11289 11289 11289 11289 11289 11289 11289 11289 11289 11289 11289 11289 11289 11289 11289 11289 11289 11289 11289 11289 11289 11289 11289 11289 11289 11289 11289 11289 11289 11289 11289 11289 11289 11289 11289 11289 11289 11289 11289 11289 11289 11289 11289 11289 11289 11289 11289 11289 11289 11289 11289 11289 11289 11289 11289 11289 11289 11289 11289 11289 11289 11289 11289 11289 11289 11289 11289 11289 11289 11289 11289 11289 11289 11289 11289 11289 11289 11289 11289 11289 11289 11289 11289 11289 11289 11289 11289 11289 11289 11289 11289 11289 11289 11289 11289 11289 11289 11289 11289 11289 11289 11289 11289 11289 11289 11289 11289 11289 11289 11289 11289 11289 11289 11289 11289 11289 11289 11289 11289 11289 11289 11289 11289 11289 11289 11289 11289 11289 11289 11289 11289 11289 11289 11289 11289 11289 11289 11289 11289 11289 11289 11289 11289 11289 11289 11289 11289 11289 11289 11289 11289 11289 11289 11289 11289 11289 11289 11289 11289 11289 11289 11289 11289 11289 11289 11289 11289 11289 11289 11289 11289 11289 11289 11289 11289 11289 11289 11289 11289 11289 11289 11289 11289 11289 11289 11289 11289 11289 11289 11289 11289 11289 11289 11289 11289 11289 11289 11289 11289 11289 11289 11289 11289 11289 11289 11289 11289 11289 11289 11289 11289 11289 11289 11289 11289 11289 11289 11289 11289 11289 11289 11289 11289 11289 11289 11289 11289 11289 11289 11289 11289 11289 11289 11289 11289 11289 11289 11289 11289 11289 11289 11289 11289 11289 11289 11289 11289 11289 11289 11289 11289 11289 11289 11289 11289 11289 11289 11289 11289 11289 11289 11289 11289 11289 11289 11289 11289 11289 11289 11289 11289 11289 11289 11289 11289 11289 11289 11289 11289 11289 11289 11289 11289 11289 11289 11289 11289 11289 11289 11289 11289 11289 11289 11289 11289 11289 11289 11289 11289 11289 11289 11289 11289 11289 11289 11289 11289 11289 11289 11289 11289 11289 11289 11289 11289 11289 11289 11289 11289 11289 11289 11289 11289 11289 11289 11289 11289 11289 11289 11289 11289 11289 11289 11289 11289 11289 11289 11289 11289 11289 11289 11289 11289 11289 11289 11289 11289 11289 11289 11289 11289 11289 11289 11289 11289 11289 11289 11289 11289 11289 11289 11289 11289 11289 11289 11289 11289 11289 11289 11289 11289 11289 11289 11289 11289 11289 11289 11289 11289 11289 11289 11289 11289 11289 11289 11289 11289 11289 11289 11289 11289 11289 11289 11289 11289 11289 11289 11289 11289 11289 11289 11289 11289 11289 11289 11289 11289 11289 11289 11289 11289 11289 11289 11289 11289 11289 11289 11289 11289 11289 11289 11289 11289 11289 11289 11289 11289 11289 11289 11289 11289 11289 11289 11289 11289 11289 11289 11289 11289 11289 11289 11289 11289 11289 11289 11289 11289 11289 11289 11289 11289 11289 11289 11289 11289 11289 11289 11289 11289 11289 11289 11289 11289 11289 11289 11289 11289 11289 11289 11289 11289 11289 11289 11289 11289 11289 11289 11289 11289 11289 11289 11289 11289 11289 11289 11289 11289 11289 11289 11289 11289 11289 11289 11289 11289 11289 11289 11289 11289 11289 11289 11289 11289 11289 11289 11289 11289 11289 11289 11289 11289 11289 11289 11289 11289 11289 11289 11289 11289 11289 11289 11289 11289 11289 11289 11289 11289 11289 11289 11289 11289 11289 11289 11289 11289 11289 11289 11289 11289 11289 11289 11289 11289 11289 11289 11289 11289 11289 11289 11289 11289 11289 11289 11289 11289 11289 11289 11289 11289 11289 11289 11289 11289 11289 11289 11289 11289 11289 11289 11289 11289 11289 11289 11289 11289 11289 11289 11289 11289 11289 11289 11289 11289 11289 11289 11289 11289 11289 11289 11289 11289 11289 11289 11289 11289 11289 11289 11289 11289 11289 11289 11289 11289 11289 11289 11289 11289 11289 11289 11289 11289 11289 11289 11289 11289 11289 11289 11289 11289 11289 11289 11289 11289 11289 11289 11289 11289 11289 11289 11289 11289 11289 11289 11289 11289 11289 11289 11289 11289 11289 11289 11289 11289 11289 11289 11289 11289 11289 11289 11289 11289 11289 11289 11289 11289 11289 11289 11289 11289 11289 11289 11289 11289 11289 11289 11289 11289 11289 11289 11289 11289 11289 11289 11289 11289 11289 11289 11289 11289 11289 11289 11289 11289 11289 11289 11289 11289 11289 11289 11289 11289 11289 11289 11289 11289 11289 11289 11289 11289 11289 11289 11289 11289 11289 11289 11289 11289 11289 11289 11289 11289 11289 11289 11289 11289 11289 11289 11289 11289 11289 11289 11289 11289 11289 11289 11289 11289 11289 11289 11289 11289 11289 11289 11289 11289 11289 11289 11289 11289 11289 11289 11289 11289 11289 11289 11289 11289 11289 11289 11289 11289 11289 11289 11289 11289 11289 11289 11289 11289 11289 11289 11289 11289 11289 11289 11289 11289 11289 11289 11289 11289 11289 11289 11289 11289 11289 11289 11289 11289 11289 11289 11289 11289 11289 11289 11289 11289 11289 11289 11289 11289 11289 11289 11289 11289 11289 11289 11289 11289 11289 11289 11289 11289 11289 11289 11289 11289 11289 11289 11289 11289 11289 11289 11289 11289 11289 11289 11289 11289 